139
100
3
40
13
9
27
2
7
9
20
44
19
2
5
25
15
10
35
2
13
11
21
41
23
44
45
27
8
22
19
41
42
30
25
8
42
16
2
48
26
30
43
14
26
9
30
20
38
34
16
14
34
1
3
11
49
26
48
16
11
3
1
25
13
28
32
16
35
36
8
14
8
41
20
9
15
48
24
41
4
19
4
23
42
33
48
3
8
11
31
8
13
9
34
27
24
44
16
8
10
41
8
8
6
6
13
21
31
36
40
27
39
45
30
28
18
40
18
4
14
13
42
7
23
11
35
36
1
4
48
36
4
5
27
27
9
3
14
5
27
